(set-info :source  loris-7.ddns.comp.nus.edu.sg/~project/hip/) 
;Variables declarations
(declare-fun cm () Int)
(declare-fun cm_3198 () Int)
(declare-fun dm () Int)
(declare-fun Anon_3311 () Int)
(declare-fun cm_3252 () Int)
(declare-fun resrr_3310 () Int)
(declare-fun Anon_3309 () Int)
(declare-fun bm_3257 () Int)
(declare-fun resrl_3308 () Int)
(declare-fun bn_3258 () Int)
(declare-fun Anon_48 () Int)
(declare-fun cn_3253 () Int)
(declare-fun bn () Int)
(declare-fun bm () Int)
(declare-fun an () Int)
(declare-fun am () Int)
(declare-fun Anon_49 () Int)
(declare-fun bn_3197 () Int)
(declare-fun bm_3196 () Int)
(declare-fun an_3195 () Int)
(declare-fun am_3194 () Int)
(declare-fun dn () Int)
(declare-fun cn () Int)
(declare-fun tmp1_3246 () Int)
(declare-fun resn_3247 () Int)
(declare-fun tmp2_3248 () Int)
(declare-fun cn_3199 () Int)
(declare-fun tmp1_3312 () Int)
(declare-fun resn_3313 () Int)
(declare-fun tmp2_3314 () Int)
(declare-fun resrn_3315 () Int)
(declare-fun resln_3249 () Int)
(declare-fun n1_3265 () Int)
(declare-fun n2_3269 () Int)
(declare-fun m2_3268 () Int)
(declare-fun m1_3264 () Int)
(declare-fun Anon_3305 () Int)
(declare-fun am_3255 () Int)
(declare-fun an_3256 () Int)
(declare-fun resl_3304 () Int)
;Relations declarations
;Axioms assertions
;Antecedent
(assert (<= 0 cm))
(assert (= cm_3198 cm))
(assert (<= 0 bm_3257))
(assert (<= 0 cm_3252))
(assert (<= 0 dm))
(assert (<= 0 cm_3198))
(assert (= bm_3257 cm_3198))
(assert (= cm_3252 dm))
(assert (or (and (and (and (< resrr_3310 1) (= cm_3252 0)) (= cn_3253 0)) (= Anon_3311 1)) (and (and (and (and (and (<= 0 Anon_3311) (<= (+ (- 0 cn_3253) 2) Anon_3311)) (<= Anon_3311 cn_3253)) (<= Anon_3311 2)) (<= 1 cm_3252)) (> resrr_3310 0))))
(assert (or (and (and (and (< resrl_3308 1) (= bm_3257 0)) (= bn_3258 0)) (= Anon_3309 1)) (and (and (and (and (and (<= 0 Anon_3309) (<= (+ (- 0 bn_3258) 2) Anon_3309)) (<= Anon_3309 bn_3258)) (<= Anon_3309 2)) (<= 1 bm_3257)) (> resrl_3308 0))))
(assert (<= an (+ bn 1)))
(assert (<= bn (+ an 1)))
(assert (<= 0 bn_3258))
(assert (<= Anon_49 2))
(assert (<= 0 Anon_49))
(assert (<= 0 cn_3253))
(assert (or (and (= tmp1_3312 cn_3253) (>= cn_3253 bn_3258)) (and (= tmp1_3312 bn_3258) (< cn_3253 bn_3258))))
(assert (<= 0 dn))
(assert (<= 0 an_3195))
(assert (<= 0 am_3194))
(assert (<= 0 bn_3197))
(assert (<= 0 bm_3196))
(assert (<= 0 cn_3199))
(assert (= bn_3258 cn_3199))
(assert (= Anon_48 resn_3247))
(assert (= cn_3253 dn))
(assert (or (and (= tmp1_3246 an_3195) (>= an_3195 bn_3197)) (and (= tmp1_3246 bn_3197) (< an_3195 bn_3197))))
(assert (<= 0 an))
(assert (<= 0 am))
(assert (<= 0 bn))
(assert (<= 0 bm))
(assert (<= 0 cn))
(assert (= bn_3197 bn))
(assert (= bm_3196 bm))
(assert (= an_3195 an))
(assert (= am_3194 am))
(assert (= (+ Anon_49 n2_3269) (+ 1 n1_3265)))
(assert (or (and (= resln_3249 (+ n1_3265 1)) (<= n2_3269 n1_3265)) (and (= resln_3249 (+ n2_3269 1)) (< n1_3265 n2_3269))))
(assert (<= (+ 0 n2_3269) (+ n1_3265 1)))
(assert (<= n1_3265 (+ 1 n2_3269)))
(assert (= n2_3269 bn_3197))
(assert (= m2_3268 bm_3196))
(assert (= n1_3265 an_3195))
(assert (= m1_3264 am_3194))
(assert (<= dn (+ cn 1)))
(assert (<= cn (+ dn 1)))
(assert (= cn_3199 cn))
(assert (= resln_3249 (+ 1 tmp1_3246)))
(assert (= resn_3247 (+ 1 tmp2_3248)))
(assert (or (and (= tmp2_3248 resln_3249) (>= resln_3249 cn_3199)) (and (= tmp2_3248 cn_3199) (< resln_3249 cn_3199))))
(assert (= resrn_3315 (+ 1 tmp1_3312)))
(assert (= resn_3313 (+ 1 tmp2_3314)))
(assert (<= 0 an_3256))
(assert (<= 0 am_3255))
(assert (or (and (= tmp2_3314 an_3256) (>= an_3256 resrn_3315)) (and (= tmp2_3314 resrn_3315) (< an_3256 resrn_3315))))
(assert (= resln_3249 an_3256))
(assert (exists ((max_3333 Int)) (and (= an_3256 (+ max_3333 1)) (or (and (= max_3333 n1_3265) (>= n1_3265 n2_3269)) (and (= max_3333 n2_3269) (< n1_3265 n2_3269))))))
(assert (= am_3255 (+ (+ m2_3268 1) m1_3264)))
(assert (or (and (and (and (< resl_3304 1) (= am_3255 0)) (= an_3256 0)) (= Anon_3305 1)) (and (and (and (and (and (<= 0 Anon_3305) (<= (+ (- 0 an_3256) 2) Anon_3305)) (<= Anon_3305 an_3256)) (<= Anon_3305 2)) (<= 1 am_3255)) (> resl_3304 0))))
;Negation of Consequence
(assert (not (or (= am_3255 0) (or (= an_3256 0) (< resl_3304 1)))))
(check-sat)